/*********************************************
 * OPL 12.9.0.0 Data
 * Author: agustin
 * Creation Date: Jan 31, 2020 at 5:16:26 AM
 *********************************************/
n = 5;

p=[30 17 30 43 34]; 
d=[46 35 38 44 45];
w=[2 1 2 1 1];